\ENCODING=ISO-8859-1
\Problem name: ilog.cplex

Minimize
 obj1: 100442 x1 + 90205 x2 + 108977 x3 + 102481 x4 + 103376 x5 + 98802 x6
       + 108511 x7 + 107300 x8 + 94826 x9 + 98382 x10 + 90290 x11 + 91998 x12
       + 98888 x13 + 105713 x14 + 98860 x15 + 92095 x16 + 104609 x17
       + 101540 x18 + 108958 x19 + 94712 x20 + 93380 x21 + 95485 x22
       + 94638 x23 + 106791 x24 + 98754 x25 + 107005 x26 + 94701 x27
       + 100213 x28 + 108068 x29 + 109381 x30 + 92135 x31 + 104562 x32
       + 103358 x33 + 108882 x34 + 98768 x35 + 101223 x36 + 102852 x37
       + 97032 x38 + 95400 x39 + 106147 x40 + 103708 x41 + 100352 x42
       + 102390 x43 + 92858 x44 + 101686 x45 + 98998 x46 + 105999 x47
       + 102106 x48 + 94086 x49 + 93378 x50 + 106148 x51 + 97768 x52
       + 103340 x53 + 102289 x54 + 95906 x55 + 107779 x56 + 94813 x57
       + 93546 x58 + 108449 x59 + 97283 x60 + 93689 x61 + 100806 x62
       + 101641 x63 + 103619 x64 + 108628 x65 + 93342 x66 + 90739 x67
       + 95722 x68 + 103434 x69 + 101611 x70 + 92454 x71 + 108577 x72
       + 93026 x73 + 95802 x74 + 98057 x75 + 102852 x76 + 107548 x77
       + 96520 x78 + 98538 x79 + 101145 x80 + 102954 x81 + 102868 x82
       + 98120 x83 + 98820 x84 + 97496 x85 + 90079 x86 + 106346 x87 + 99675 x88
       + 105283 x89 + 91384 x90 + 93514 x91 + 104463 x92 + 100449 x93
       + 96911 x94 + 109425 x95 + 103771 x96 + 98462 x97 + 96232 x98
       + 101178 x99 + 95844 x100 + 104634 x101 + 94677 x102 + 105249 x103
       + 101773 x104 + 93702 x105 + 95150 x106 + 95372 x107 + 101835 x108
       + 97550 x109 + 90847 x110 + 90373 x111 + 106488 x112 + 103533 x113
       + 107648 x114 + 99543 x115 + 108109 x116 + 94737 x117 + 99792 x118
       + 104473 x119 + 93891 x120 + 107001 x121 + 96065 x122 + 109354 x123
       + 96625 x124 + 101750 x125 + 97892 x126 + 98321 x127 + 94381 x128
       + 90379 x129 + 90878 x130 + 93459 x131 + 105186 x132 + 105630 x133
       + 90575 x134 + 97152 x135 + 104825 x136 + 100729 x137 + 93132 x138
       + 108054 x139 + 98569 x140 + 108037 x141 + 101949 x142 + 101272 x143
       + 100967 x144 + 105516 x145 + 92587 x146 + 100225 x147 + 101710 x148
       + 101532 x149 + 99922 x150 + 103884 x151 + 91419 x152 + 96409 x153
       + 92229 x154 + 93124 x155 + 94495 x156 + 92111 x157 + 102675 x158
       + 99557 x159 + 97943 x160 + 101612 x161 + 97029 x162 + 100966 x163
       + 105675 x164 + 99895 x165 + 105751 x166 + 103724 x167 + 90486 x168
       + 102358 x169 + 108620 x170 + 103166 x171 + 97062 x172 + 99359 x173
       + 109227 x174 + 95275 x175 + 99594 x176 + 97469 x177 + 106450 x178
       + 100062 x179 + 96644 x180 + 108940 x181 + 106410 x182 + 94400 x183
       + 99049 x184 + 101055 x185 + 96897 x186 + 100053 x187 + 95408 x188
       + 107822 x189 + 90300 x190 + 91265 x191 + 104123 x192 + 97927 x193
       + 90807 x194 + 95481 x195 + 100944 x196 + 104878 x197 + 96963 x198
       + 100687 x199 + 106647 x200 + 90719 x201 + 106010 x202 + 97970 x203
       + 91617 x204 + 93843 x205 + 99596 x206 + 92328 x207 + 91803 x208
       + 94464 x209 + 92450 x210 + 102604 x211 + 105270 x212 + 102892 x213
       + 97282 x214 + 104319 x215 + 99905 x216 + 100150 x217 + 107617 x218
       + 95536 x219 + 100726 x220 + 108171 x221 + 93380 x222 + 106561 x223
       + 100019 x224 + 102979 x225 + 95085 x226 + 100671 x227 + 91831 x228
       + 103119 x229 + 99165 x230 + 108073 x231 + 101145 x232 + 101869 x233
       + 95266 x234 + 106874 x235 + 104227 x236 + 103693 x237 + 95274 x238
       + 102055 x239 + 93330 x240 + 92861 x241 + 93366 x242 + 96278 x243
       + 106337 x244 + 105357 x245 + 106583 x246 + 94799 x247 + 99882 x248
       + 93929 x249 + 96201 x250 + 91607 x251 + 97626 x252 + 108652 x253
       + 100614 x254 + 100452 x255 + 98037 x256 + 106536 x257 + 108645 x258
       + 91500 x259 + 95019 x260 + 108722 x261 + 96969 x262 + 99932 x263
       + 100891 x264 + 101200 x265 + 95192 x266 + 108739 x267 + 107190 x268
       + 103822 x269 + 91238 x270 + 104450 x271 + 103856 x272 + 109648 x273
       + 102658 x274 + 90556 x275 + 90244 x276 + 98807 x277 + 90744 x278
       + 107840 x279 + 109447 x280 + 105435 x281 + 99356 x282 + 97215 x283
       + 102186 x284 + 100512 x285 + 95424 x286 + 107745 x287 + 106812 x288
       + 108270 x289 + 98676 x290 + 100193 x291 + 107933 x292 + 99334 x293
       + 94479 x294 + 104726 x295 + 97777 x296 + 99883 x297 + 105516 x298
       + 100364 x299 + 101571 x300 + 91101 x301 + 104473 x302 + 91871 x303
       + 101238 x304 + 109027 x305 + 97766 x306 + 101061 x307 + 102320 x308
       + 90631 x309 + 92566 x310 + 98546 x311 + 97362 x312 + 99390 x313
       + 101691 x314 + 90653 x315 + 107773 x316 + 108075 x317 + 92110 x318
       + 104925 x319 + 102935 x320 + 98059 x321 + 90755 x322 + 95042 x323
       + 104740 x324 + 96082 x325 + 95639 x326 + 93769 x327 + 90738 x328
       + 99933 x329 + 94729 x330 + 109860 x331 + 91937 x332 + 102346 x333
       + 97325 x334 + 102981 x335 + 96434 x336 + 105850 x337 + 95758 x338
       + 104489 x339 + 105902 x340 + 90422 x341 + 98755 x342 + 101308 x343
       + 108340 x344 + 90462 x345 + 92129 x346 + 105139 x347 + 107586 x348
       + 97974 x349 + 107262 x350 + 93367 x351 + 96652 x352 + 108892 x353
       + 108141 x354 + 95624 x355 + 96785 x356 + 109752 x357 + 101520 x358
       + 98002 x359 + 92510 x360 + 91745 x361 + 94735 x362 + 96981 x363
       + 95934 x364 + 100052 x365 + 96608 x366 + 90334 x367 + 107459 x368
       + 97278 x369 + 106978 x370 + 93778 x371 + 108329 x372 + 107159 x373
       + 104817 x374 + 97518 x375 + 92235 x376 + 107691 x377 + 104462 x378
       + 104576 x379 + 106524 x380 + 95721 x381 + 92956 x382 + 93303 x383
       + 94841 x384 + 108387 x385 + 98058 x386 + 97548 x387 + 109929 x388
       + 90677 x389 + 98695 x390 + 99746 x391 + 97802 x392 + 102949 x393
       + 97465 x394 + 104498 x395 + 102689 x396 + 107434 x397 + 108253 x398
       + 103244 x399 + 105891 x400 + 91102 x401 + 108124 x402 + 91171 x403
       + 106187 x404 + 103745 x405 + 104251 x406 + 109035 x407 + 109073 x408
       + 102552 x409 + 109030 x410 + 105346 x411 + 100590 x412 + 107843 x413
       + 90175 x414 + 104700 x415 + 93453 x416 + 92897 x417 + 109251 x418
       + 90556 x419 + 95010 x420 + 102293 x421 + 99434 x422 + 96017 x423
       + 108236 x424 + 94266 x425 + 95687 x426 + 93655 x427 + 91080 x428
       + 92881 x429 + 91087 x430 + 91711 x431 + 109782 x432 + 100225 x433
       + 104423 x434 + 93658 x435 + 91001 x436 + 98839 x437 + 96300 x438
       + 93471 x439 + 97458 x440 + 90257 x441 + 103585 x442 + 99910 x443
       + 102299 x444 + 106779 x445 + 95404 x446 + 109678 x447 + 98476 x448
       + 100515 x449 + 107756 x450 + 108429 x451 + 101401 x452 + 103878 x453
       + 92799 x454 + 99017 x455 + 91468 x456 + 100926 x457 + 91367 x458
       + 96681 x459 + 106361 x460 + 94482 x461 + 98704 x462 + 94704 x463
       + 92941 x464 + 96256 x465 + 97985 x466 + 97942 x467 + 91570 x468
       + 100642 x469 + 100911 x470 + 106952 x471 + 102204 x472 + 100683 x473
       + 90827 x474 + 102877 x475 + 90342 x476 + 104623 x477 + 98546 x478
       + 104102 x479 + 105088 x480 + 97475 x481 + 100071 x482 + 105218 x483
       + 104390 x484 + 99443 x485 + 108587 x486 + 109057 x487 + 90989 x488
       + 90993 x489 + 91813 x490 + 103303 x491 + 96699 x492 + 102991 x493
       + 100255 x494 + 94659 x495 + 92327 x496 + 109574 x497 + 101874 x498
       + 95564 x499 + 205230 x500 + 41550 x501 + 41188 x502 + 36375 x503
       + 39421 x504 + 43101 x505 + 43651 x506 + 41613 x507 + 36464 x508
       + 36651 x509 + 43679 x510 + 37992 x511 + 43901 x512 + 41157 x513
       + 37023 x514 + 41063 x515 + 39309 x516 + 40190 x517 + 41203 x518
       + 43566 x519 + 40866 x520 + 36098 x521 + 38615 x522 + 40910 x523
       + 37240 x524 + 42204 x525 + 36230 x526 + 36727 x527 + 43488 x528
       + 38900 x529 + 40351 x530 + 38757 x531 + 38774 x532 + 42438 x533
       + 36268 x534 + 39608 x535 + 43476 x536 + 42942 x537 + 40798 x538
       + 42038 x539 + 41774 x540 + 36555 x541 + 40578 x542 + 38202 x543
       + 43034 x544 + 41903 x545 + 36593 x546 + 38888 x547 + 37351 x548
       + 36933 x549 + 42364 x550
Subject To
 c1:   - x1 + x4 + x5 + x13 - x21 + x22 - x23 + x30 + x41 + x48  = 0
 c2:   - x51 + x54 + x55 + x63 - x71 + x72 - x73 + x80 + x91 + x98  = 1
 c3:   - x101 + x104 + x105 + x113 - x121 + x122 - x123 + x130 + x141 + x148
        = 0
 c4:   - x151 + x154 + x155 + x163 - x171 + x172 - x173 + x180 + x191 + x198
        = 0
 c5:   - x201 + x204 + x205 + x213 - x221 + x222 - x223 + x230 + x241 + x248
        = 1
 c6:   - x251 + x254 + x255 + x263 - x271 + x272 - x273 + x280 + x291 + x298
        = -1
 c7:   - x301 + x304 + x305 + x313 - x321 + x322 - x323 + x330 + x341 + x348
        = 0
 c8:   - x351 + x354 + x355 + x363 - x371 + x372 - x373 + x380 + x391 + x398
        = 0
 c9:   - x401 + x404 + x405 + x413 - x421 + x422 - x423 + x430 + x441 + x448
        = 1
 c10:  - x451 + x454 + x455 + x463 - x471 + x472 - x473 + x480 + x491 + x498
        = 1
 c11:  - x4 - x12 + x16 - x26 - x28 + x42 - x44 - x47 + x49  = 0
 c12:  - x54 - x62 + x66 - x76 - x78 + x92 - x94 - x97 + x99  = 0
 c13:  - x104 - x112 + x116 - x126 - x128 + x142 - x144 - x147 + x149  = 0
 c14:  - x154 - x162 + x166 - x176 - x178 + x192 - x194 - x197 + x199  = 0
 c15:  - x204 - x212 + x216 - x226 - x228 + x242 - x244 - x247 + x249  = -1
 c16:  - x254 - x262 + x266 - x276 - x278 + x292 - x294 - x297 + x299  = 1
 c17:  - x304 - x312 + x316 - x326 - x328 + x342 - x344 - x347 + x349  = -1
 c18:  - x354 - x362 + x366 - x376 - x378 + x392 - x394 - x397 + x399  = 0
 c19:  - x404 - x412 + x416 - x426 - x428 + x442 - x444 - x447 + x449  = 0
 c20:  - x454 - x462 + x466 - x476 - x478 + x492 - x494 - x497 + x499  = 0
 c21:  - x2 - x15 - x16 - x29 + x37 - x38 - x39  = 1
 c22:  - x52 - x65 - x66 - x79 + x87 - x88 - x89  = 0
 c23:  - x102 - x115 - x116 - x129 + x137 - x138 - x139  = 0
 c24:  - x152 - x165 - x166 - x179 + x187 - x188 - x189  = 0
 c25:  - x202 - x215 - x216 - x229 + x237 - x238 - x239  = 0
 c26:  - x252 - x265 - x266 - x279 + x287 - x288 - x289  = 0
 c27:  - x302 - x315 - x316 - x329 + x337 - x338 - x339  = 1
 c28:  - x352 - x365 - x366 - x379 + x387 - x388 - x389  = -1
 c29:  - x402 - x415 - x416 - x429 + x437 - x438 - x439  = -1
 c30:  - x452 - x465 - x466 - x479 + x487 - x488 - x489  = 0
 c31:  x7 + x8 + x15 - x17 + x19 - x24 + x26 + x31 + x45 - x49  = 0
 c32:  x57 + x58 + x65 - x67 + x69 - x74 + x76 + x81 + x95 - x99  = 0
 c33:  x107 + x108 + x115 - x117 + x119 - x124 + x126 + x131 + x145 - x149  = 0
 c34:  x157 + x158 + x165 - x167 + x169 - x174 + x176 + x181 + x195 - x199
        = -1
 c35:  x207 + x208 + x215 - x217 + x219 - x224 + x226 + x231 + x245 - x249  = 0
 c36:  x257 + x258 + x265 - x267 + x269 - x274 + x276 + x281 + x295 - x299  = 0
 c37:  x307 + x308 + x315 - x317 + x319 - x324 + x326 + x331 + x345 - x349  = 0
 c38:  x357 + x358 + x365 - x367 + x369 - x374 + x376 + x381 + x395 - x399  = 0
 c39:  x407 + x408 + x415 - x417 + x419 - x424 + x426 + x431 + x445 - x449  = 0
 c40:  x457 + x458 + x465 - x467 + x469 - x474 + x476 + x481 + x495 - x499
        = -1
 c41:  x6 - x7 + x14 - x20 + x21 - x22 - x25 + x27 + x29 - x37 + x40 + x47
       - x50  = 0
 c42:  x56 - x57 + x64 - x70 + x71 - x72 - x75 + x77 + x79 - x87 + x90 + x97
       - x100  = -1
 c43:  x106 - x107 + x114 - x120 + x121 - x122 - x125 + x127 + x129 - x137
       + x140 + x147 - x150  = 0
 c44:  x156 - x157 + x164 - x170 + x171 - x172 - x175 + x177 + x179 - x187
       + x190 + x197 - x200  = 0
 c45:  x206 - x207 + x214 - x220 + x221 - x222 - x225 + x227 + x229 - x237
       + x240 + x247 - x250  = 0
 c46:  x256 - x257 + x264 - x270 + x271 - x272 - x275 + x277 + x279 - x287
       + x290 + x297 - x300  = 0
 c47:  x306 - x307 + x314 - x320 + x321 - x322 - x325 + x327 + x329 - x337
       + x340 + x347 - x350  = 0
 c48:  x356 - x357 + x364 - x370 + x371 - x372 - x375 + x377 + x379 - x387
       + x390 + x397 - x400  = 0
 c49:  x406 - x407 + x414 - x420 + x421 - x422 - x425 + x427 + x429 - x437
       + x440 + x447 - x450  = 0
 c50:  x456 - x457 + x464 - x470 + x471 - x472 - x475 + x477 + x479 - x487
       + x490 + x497 - x500  = 0
 c51:  - x5 - x10 - x32 + x34 - x36 + x39 - x40 - x45  = 0
 c52:  - x55 - x60 - x82 + x84 - x86 + x89 - x90 - x95  = 0
 c53:  - x105 - x110 - x132 + x134 - x136 + x139 - x140 - x145  = 1
 c54:  - x155 - x160 - x182 + x184 - x186 + x189 - x190 - x195  = 1
 c55:  - x205 - x210 - x232 + x234 - x236 + x239 - x240 - x245  = 0
 c56:  - x255 - x260 - x282 + x284 - x286 + x289 - x290 - x295  = 0
 c57:  - x305 - x310 - x332 + x334 - x336 + x339 - x340 - x345  = 0
 c58:  - x355 - x360 - x382 + x384 - x386 + x389 - x390 - x395  = 0
 c59:  - x405 - x410 - x432 + x434 - x436 + x439 - x440 - x445  = 0
 c60:  - x455 - x460 - x482 + x484 - x486 + x489 - x490 - x495  = 0
 c61:  x2 + x3 - x8 + x9 + x11 + x12 - x13 - x14 - x18 + x20 + x23 - x34 - x46
        = -1
 c62:  x52 + x53 - x58 + x59 + x61 + x62 - x63 - x64 - x68 + x70 + x73 - x84
       - x96  = 0
 c63:  x102 + x103 - x108 + x109 + x111 + x112 - x113 - x114 - x118 + x120
       + x123 - x134 - x146  = -1
 c64:  x152 + x153 - x158 + x159 + x161 + x162 - x163 - x164 - x168 + x170
       + x173 - x184 - x196  = 0
 c65:  x202 + x203 - x208 + x209 + x211 + x212 - x213 - x214 - x218 + x220
       + x223 - x234 - x246  = 0
 c66:  x252 + x253 - x258 + x259 + x261 + x262 - x263 - x264 - x268 + x270
       + x273 - x284 - x296  = 0
 c67:  x302 + x303 - x308 + x309 + x311 + x312 - x313 - x314 - x318 + x320
       + x323 - x334 - x346  = 0
 c68:  x352 + x353 - x358 + x359 + x361 + x362 - x363 - x364 - x368 + x370
       + x373 - x384 - x396  = 0
 c69:  x402 + x403 - x408 + x409 + x411 + x412 - x413 - x414 - x418 + x420
       + x423 - x434 - x446  = 0
 c70:  x452 + x453 - x458 + x459 + x461 + x462 - x463 - x464 - x468 + x470
       + x473 - x484 - x496  = 0
 c71:  - x6 - x9 + x25 + x28 - x31 + x36 - x42 + x43 + x46 - x48  = 0
 c72:  - x56 - x59 + x75 + x78 - x81 + x86 - x92 + x93 + x96 - x98  = 0
 c73:  - x106 - x109 + x125 + x128 - x131 + x136 - x142 + x143 + x146 - x148
        = 0
 c74:  - x156 - x159 + x175 + x178 - x181 + x186 - x192 + x193 + x196 - x198
        = 0
 c75:  - x206 - x209 + x225 + x228 - x231 + x236 - x242 + x243 + x246 - x248
        = 0
 c76:  - x256 - x259 + x275 + x278 - x281 + x286 - x292 + x293 + x296 - x298
        = 0
 c77:  - x306 - x309 + x325 + x328 - x331 + x336 - x342 + x343 + x346 - x348
        = 0
 c78:  - x356 - x359 + x375 + x378 - x381 + x386 - x392 + x393 + x396 - x398
        = 0
 c79:  - x406 - x409 + x425 + x428 - x431 + x436 - x442 + x443 + x446 - x448
        = 0
 c80:  - x456 - x459 + x475 + x478 - x481 + x486 - x492 + x493 + x496 - x498
        = 0
 c81:  - x11 + x18 + x24 - x27 + x32 - x33 + x35 - x41 - x43 + x44  = 0
 c82:  - x61 + x68 + x74 - x77 + x82 - x83 + x85 - x91 - x93 + x94  = 0
 c83:  - x111 + x118 + x124 - x127 + x132 - x133 + x135 - x141 - x143 + x144
        = 0
 c84:  - x161 + x168 + x174 - x177 + x182 - x183 + x185 - x191 - x193 + x194
        = 0
 c85:  - x211 + x218 + x224 - x227 + x232 - x233 + x235 - x241 - x243 + x244
        = 0
 c86:  - x261 + x268 + x274 - x277 + x282 - x283 + x285 - x291 - x293 + x294
        = 0
 c87:  - x311 + x318 + x324 - x327 + x332 - x333 + x335 - x341 - x343 + x344
        = 0
 c88:  - x361 + x368 + x374 - x377 + x382 - x383 + x385 - x391 - x393 + x394
        = 1
 c89:  - x411 + x418 + x424 - x427 + x432 - x433 + x435 - x441 - x443 + x444
        = 0
 c90:  - x461 + x468 + x474 - x477 + x482 - x483 + x485 - x491 - x493 + x494
        = 0
 c91:  x1 - x3 + x10 + x17 - x19 - x30 + x33 - x35 + x38 + x50  = 0
 c92:  x51 - x53 + x60 + x67 - x69 - x80 + x83 - x85 + x88 + x100  = 0
 c93:  x101 - x103 + x110 + x117 - x119 - x130 + x133 - x135 + x138 + x150  = 0
 c94:  x151 - x153 + x160 + x167 - x169 - x180 + x183 - x185 + x188 + x200  = 0
 c95:  x201 - x203 + x210 + x217 - x219 - x230 + x233 - x235 + x238 + x250  = 0
 c96:  x251 - x253 + x260 + x267 - x269 - x280 + x283 - x285 + x288 + x300  = 0
 c97:  x301 - x303 + x310 + x317 - x319 - x330 + x333 - x335 + x338 + x350  = 0
 c98:  x351 - x353 + x360 + x367 - x369 - x380 + x383 - x385 + x388 + x400  = 0
 c99:  x401 - x403 + x410 + x417 - x419 - x430 + x433 - x435 + x438 + x450  = 0
 c100: x451 - x453 + x460 + x467 - x469 - x480 + x483 - x485 + x488 + x500  = 0
 c101: 4 x1 + 4 x51 + 4 x101 + 4 x151 + 4 x201 + 4 x251 + 4 x301 + 4 x351
       + 4 x401 + 4 x451 - 22 x501 <= 0
 c102: 4 x2 + 4 x52 + 4 x102 + 4 x152 + 4 x202 + 4 x252 + 4 x302 + 4 x352
       + 4 x402 + 4 x452 - 19 x502 <= 0
 c103: 4 x3 + 4 x53 + 4 x103 + 4 x153 + 4 x203 + 4 x253 + 4 x303 + 4 x353
       + 4 x403 + 4 x453 - 18 x503 <= 0
 c104: 4 x4 + 4 x54 + 4 x104 + 4 x154 + 4 x204 + 4 x254 + 4 x304 + 4 x354
       + 4 x404 + 4 x454 - 18 x504 <= 0
 c105: 4 x5 + 4 x55 + 4 x105 + 4 x155 + 4 x205 + 4 x255 + 4 x305 + 4 x355
       + 4 x405 + 4 x455 - 21 x505 <= 0
 c106: 4 x6 + 4 x56 + 4 x106 + 4 x156 + 4 x206 + 4 x256 + 4 x306 + 4 x356
       + 4 x406 + 4 x456 - 21 x506 <= 0
 c107: 4 x7 + 4 x57 + 4 x107 + 4 x157 + 4 x207 + 4 x257 + 4 x307 + 4 x357
       + 4 x407 + 4 x457 - 19 x507 <= 0
 c108: 4 x8 + 4 x58 + 4 x108 + 4 x158 + 4 x208 + 4 x258 + 4 x308 + 4 x358
       + 4 x408 + 4 x458 - 20 x508 <= 0
 c109: 4 x9 + 4 x59 + 4 x109 + 4 x159 + 4 x209 + 4 x259 + 4 x309 + 4 x359
       + 4 x409 + 4 x459 - 21 x509 <= 0
 c110: 4 x10 + 4 x60 + 4 x110 + 4 x160 + 4 x210 + 4 x260 + 4 x310 + 4 x360
       + 4 x410 + 4 x460 - 19 x510 <= 0
 c111: 4 x11 + 4 x61 + 4 x111 + 4 x161 + 4 x211 + 4 x261 + 4 x311 + 4 x361
       + 4 x411 + 4 x461 - 20 x511 <= 0
 c112: 4 x12 + 4 x62 + 4 x112 + 4 x162 + 4 x212 + 4 x262 + 4 x312 + 4 x362
       + 4 x412 + 4 x462 - 20 x512 <= 0
 c113: 4 x13 + 4 x63 + 4 x113 + 4 x163 + 4 x213 + 4 x263 + 4 x313 + 4 x363
       + 4 x413 + 4 x463 - 20 x513 <= 0
 c114: 4 x14 + 4 x64 + 4 x114 + 4 x164 + 4 x214 + 4 x264 + 4 x314 + 4 x364
       + 4 x414 + 4 x464 - 18 x514 <= 0
 c115: 4 x15 + 4 x65 + 4 x115 + 4 x165 + 4 x215 + 4 x265 + 4 x315 + 4 x365
       + 4 x415 + 4 x465 - 19 x515 <= 0
 c116: 4 x16 + 4 x66 + 4 x116 + 4 x166 + 4 x216 + 4 x266 + 4 x316 + 4 x366
       + 4 x416 + 4 x466 - 20 x516 <= 0
 c117: 4 x17 + 4 x67 + 4 x117 + 4 x167 + 4 x217 + 4 x267 + 4 x317 + 4 x367
       + 4 x417 + 4 x467 - 22 x517 <= 0
 c118: 4 x18 + 4 x68 + 4 x118 + 4 x168 + 4 x218 + 4 x268 + 4 x318 + 4 x368
       + 4 x418 + 4 x468 - 21 x518 <= 0
 c119: 4 x19 + 4 x69 + 4 x119 + 4 x169 + 4 x219 + 4 x269 + 4 x319 + 4 x369
       + 4 x419 + 4 x469 - 19 x519 <= 0
 c120: 4 x20 + 4 x70 + 4 x120 + 4 x170 + 4 x220 + 4 x270 + 4 x320 + 4 x370
       + 4 x420 + 4 x470 - 21 x520 <= 0
 c121: 4 x21 + 4 x71 + 4 x121 + 4 x171 + 4 x221 + 4 x271 + 4 x321 + 4 x371
       + 4 x421 + 4 x471 - 22 x521 <= 0
 c122: 4 x22 + 4 x72 + 4 x122 + 4 x172 + 4 x222 + 4 x272 + 4 x322 + 4 x372
       + 4 x422 + 4 x472 - 22 x522 <= 0
 c123: 4 x23 + 4 x73 + 4 x123 + 4 x173 + 4 x223 + 4 x273 + 4 x323 + 4 x373
       + 4 x423 + 4 x473 - 21 x523 <= 0
 c124: 4 x24 + 4 x74 + 4 x124 + 4 x174 + 4 x224 + 4 x274 + 4 x324 + 4 x374
       + 4 x424 + 4 x474 - 18 x524 <= 0
 c125: 4 x25 + 4 x75 + 4 x125 + 4 x175 + 4 x225 + 4 x275 + 4 x325 + 4 x375
       + 4 x425 + 4 x475 - 21 x525 <= 0
 c126: 4 x26 + 4 x76 + 4 x126 + 4 x176 + 4 x226 + 4 x276 + 4 x326 + 4 x376
       + 4 x426 + 4 x476 - 21 x526 <= 0
 c127: 4 x27 + 4 x77 + 4 x127 + 4 x177 + 4 x227 + 4 x277 + 4 x327 + 4 x377
       + 4 x427 + 4 x477 - 20 x527 <= 0
 c128: 4 x28 + 4 x78 + 4 x128 + 4 x178 + 4 x228 + 4 x278 + 4 x328 + 4 x378
       + 4 x428 + 4 x478 - 19 x528 <= 0
 c129: 4 x29 + 4 x79 + 4 x129 + 4 x179 + 4 x229 + 4 x279 + 4 x329 + 4 x379
       + 4 x429 + 4 x479 - 18 x529 <= 0
 c130: 4 x30 + 4 x80 + 4 x130 + 4 x180 + 4 x230 + 4 x280 + 4 x330 + 4 x380
       + 4 x430 + 4 x480 - 21 x530 <= 0
 c131: 4 x31 + 4 x81 + 4 x131 + 4 x181 + 4 x231 + 4 x281 + 4 x331 + 4 x381
       + 4 x431 + 4 x481 - 21 x531 <= 0
 c132: 4 x32 + 4 x82 + 4 x132 + 4 x182 + 4 x232 + 4 x282 + 4 x332 + 4 x382
       + 4 x432 + 4 x482 - 18 x532 <= 0
 c133: 4 x33 + 4 x83 + 4 x133 + 4 x183 + 4 x233 + 4 x283 + 4 x333 + 4 x383
       + 4 x433 + 4 x483 - 20 x533 <= 0
 c134: 4 x34 + 4 x84 + 4 x134 + 4 x184 + 4 x234 + 4 x284 + 4 x334 + 4 x384
       + 4 x434 + 4 x484 - 20 x534 <= 0
 c135: 4 x35 + 4 x85 + 4 x135 + 4 x185 + 4 x235 + 4 x285 + 4 x335 + 4 x385
       + 4 x435 + 4 x485 - 19 x535 <= 0
 c136: 4 x36 + 4 x86 + 4 x136 + 4 x186 + 4 x236 + 4 x286 + 4 x336 + 4 x386
       + 4 x436 + 4 x486 - 21 x536 <= 0
 c137: 4 x37 + 4 x87 + 4 x137 + 4 x187 + 4 x237 + 4 x287 + 4 x337 + 4 x387
       + 4 x437 + 4 x487 - 19 x537 <= 0
 c138: 4 x38 + 4 x88 + 4 x138 + 4 x188 + 4 x238 + 4 x288 + 4 x338 + 4 x388
       + 4 x438 + 4 x488 - 18 x538 <= 0
 c139: 4 x39 + 4 x89 + 4 x139 + 4 x189 + 4 x239 + 4 x289 + 4 x339 + 4 x389
       + 4 x439 + 4 x489 - 19 x539 <= 0
 c140: 4 x40 + 4 x90 + 4 x140 + 4 x190 + 4 x240 + 4 x290 + 4 x340 + 4 x390
       + 4 x440 + 4 x490 - 22 x540 <= 0
 c141: 4 x41 + 4 x91 + 4 x141 + 4 x191 + 4 x241 + 4 x291 + 4 x341 + 4 x391
       + 4 x441 + 4 x491 - 20 x541 <= 0
 c142: 4 x42 + 4 x92 + 4 x142 + 4 x192 + 4 x242 + 4 x292 + 4 x342 + 4 x392
       + 4 x442 + 4 x492 - 20 x542 <= 0
 c143: 4 x43 + 4 x93 + 4 x143 + 4 x193 + 4 x243 + 4 x293 + 4 x343 + 4 x393
       + 4 x443 + 4 x493 - 22 x543 <= 0
 c144: 4 x44 + 4 x94 + 4 x144 + 4 x194 + 4 x244 + 4 x294 + 4 x344 + 4 x394
       + 4 x444 + 4 x494 - 20 x544 <= 0
 c145: 4 x45 + 4 x95 + 4 x145 + 4 x195 + 4 x245 + 4 x295 + 4 x345 + 4 x395
       + 4 x445 + 4 x495 - 20 x545 <= 0
 c146: 4 x46 + 4 x96 + 4 x146 + 4 x196 + 4 x246 + 4 x296 + 4 x346 + 4 x396
       + 4 x446 + 4 x496 - 21 x546 <= 0
 c147: 4 x47 + 4 x97 + 4 x147 + 4 x197 + 4 x247 + 4 x297 + 4 x347 + 4 x397
       + 4 x447 + 4 x497 - 19 x547 <= 0
 c148: 4 x48 + 4 x98 + 4 x148 + 4 x198 + 4 x248 + 4 x298 + 4 x348 + 4 x398
       + 4 x448 + 4 x498 - 21 x548 <= 0
 c149: 4 x49 + 4 x99 + 4 x149 + 4 x199 + 4 x249 + 4 x299 + 4 x349 + 4 x399
       + 4 x449 + 4 x499 - 19 x549 <= 0
 c150: 4 x50 + 4 x100 + 4 x150 + 4 x200 + 4 x250 + 4 x300 + 4 x350 + 4 x400
       + 4 x450 + 4 x500 - 20 x550 <= 0
Bounds
 0 <= x1 <= 1
 0 <= x2 <= 1
 0 <= x3 <= 1
 0 <= x4 <= 1
 0 <= x5 <= 1
 0 <= x6 <= 1
 0 <= x7 <= 1
 0 <= x8 <= 1
 0 <= x9 <= 1
 0 <= x10 <= 1
 0 <= x11 <= 1
 0 <= x12 <= 1
 0 <= x13 <= 1
 0 <= x14 <= 1
 0 <= x15 <= 1
 0 <= x16 <= 1
 0 <= x17 <= 1
 0 <= x18 <= 1
 0 <= x19 <= 1
 0 <= x20 <= 1
 0 <= x21 <= 1
 0 <= x22 <= 1
 0 <= x23 <= 1
 0 <= x24 <= 1
 0 <= x25 <= 1
 0 <= x26 <= 1
 0 <= x27 <= 1
 0 <= x28 <= 1
 0 <= x29 <= 1
 0 <= x30 <= 1
 0 <= x31 <= 1
 0 <= x32 <= 1
 0 <= x33 <= 1
 0 <= x34 <= 1
 0 <= x35 <= 1
 0 <= x36 <= 1
 0 <= x37 <= 1
 0 <= x38 <= 1
 0 <= x39 <= 1
 0 <= x40 <= 1
 0 <= x41 <= 1
 0 <= x42 <= 1
 0 <= x43 <= 1
 0 <= x44 <= 1
 0 <= x45 <= 1
 0 <= x46 <= 1
 0 <= x47 <= 1
 0 <= x48 <= 1
 0 <= x49 <= 1
 0 <= x50 <= 1
 0 <= x51 <= 1
 0 <= x52 <= 1
 0 <= x53 <= 1
 0 <= x54 <= 1
 0 <= x55 <= 1
 0 <= x56 <= 1
 0 <= x57 <= 1
 0 <= x58 <= 1
 0 <= x59 <= 1
 0 <= x60 <= 1
 0 <= x61 <= 1
 0 <= x62 <= 1
 0 <= x63 <= 1
 0 <= x64 <= 1
 0 <= x65 <= 1
 0 <= x66 <= 1
 0 <= x67 <= 1
 0 <= x68 <= 1
 0 <= x69 <= 1
 0 <= x70 <= 1
 0 <= x71 <= 1
 0 <= x72 <= 1
 0 <= x73 <= 1
 0 <= x74 <= 1
 0 <= x75 <= 1
 0 <= x76 <= 1
 0 <= x77 <= 1
 0 <= x78 <= 1
 0 <= x79 <= 1
 0 <= x80 <= 1
 0 <= x81 <= 1
 0 <= x82 <= 1
 0 <= x83 <= 1
 0 <= x84 <= 1
 0 <= x85 <= 1
 0 <= x86 <= 1
 0 <= x87 <= 1
 0 <= x88 <= 1
 0 <= x89 <= 1
 0 <= x90 <= 1
 0 <= x91 <= 1
 0 <= x92 <= 1
 0 <= x93 <= 1
 0 <= x94 <= 1
 0 <= x95 <= 1
 0 <= x96 <= 1
 0 <= x97 <= 1
 0 <= x98 <= 1
 0 <= x99 <= 1
 0 <= x100 <= 1
 0 <= x101 <= 1
 0 <= x102 <= 1
 0 <= x103 <= 1
 0 <= x104 <= 1
 0 <= x105 <= 1
 0 <= x106 <= 1
 0 <= x107 <= 1
 0 <= x108 <= 1
 0 <= x109 <= 1
 0 <= x110 <= 1
 0 <= x111 <= 1
 0 <= x112 <= 1
 0 <= x113 <= 1
 0 <= x114 <= 1
 0 <= x115 <= 1
 0 <= x116 <= 1
 0 <= x117 <= 1
 0 <= x118 <= 1
 0 <= x119 <= 1
 0 <= x120 <= 1
 0 <= x121 <= 1
 0 <= x122 <= 1
 0 <= x123 <= 1
 0 <= x124 <= 1
 0 <= x125 <= 1
 0 <= x126 <= 1
 0 <= x127 <= 1
 0 <= x128 <= 1
 0 <= x129 <= 1
 0 <= x130 <= 1
 0 <= x131 <= 1
 0 <= x132 <= 1
 0 <= x133 <= 1
 0 <= x134 <= 1
 0 <= x135 <= 1
 0 <= x136 <= 1
 0 <= x137 <= 1
 0 <= x138 <= 1
 0 <= x139 <= 1
 0 <= x140 <= 1
 0 <= x141 <= 1
 0 <= x142 <= 1
 0 <= x143 <= 1
 0 <= x144 <= 1
 0 <= x145 <= 1
 0 <= x146 <= 1
 0 <= x147 <= 1
 0 <= x148 <= 1
 0 <= x149 <= 1
 0 <= x150 <= 1
 0 <= x151 <= 1
 0 <= x152 <= 1
 0 <= x153 <= 1
 0 <= x154 <= 1
 0 <= x155 <= 1
 0 <= x156 <= 1
 0 <= x157 <= 1
 0 <= x158 <= 1
 0 <= x159 <= 1
 0 <= x160 <= 1
 0 <= x161 <= 1
 0 <= x162 <= 1
 0 <= x163 <= 1
 0 <= x164 <= 1
 0 <= x165 <= 1
 0 <= x166 <= 1
 0 <= x167 <= 1
 0 <= x168 <= 1
 0 <= x169 <= 1
 0 <= x170 <= 1
 0 <= x171 <= 1
 0 <= x172 <= 1
 0 <= x173 <= 1
 0 <= x174 <= 1
 0 <= x175 <= 1
 0 <= x176 <= 1
 0 <= x177 <= 1
 0 <= x178 <= 1
 0 <= x179 <= 1
 0 <= x180 <= 1
 0 <= x181 <= 1
 0 <= x182 <= 1
 0 <= x183 <= 1
 0 <= x184 <= 1
 0 <= x185 <= 1
 0 <= x186 <= 1
 0 <= x187 <= 1
 0 <= x188 <= 1
 0 <= x189 <= 1
 0 <= x190 <= 1
 0 <= x191 <= 1
 0 <= x192 <= 1
 0 <= x193 <= 1
 0 <= x194 <= 1
 0 <= x195 <= 1
 0 <= x196 <= 1
 0 <= x197 <= 1
 0 <= x198 <= 1
 0 <= x199 <= 1
 0 <= x200 <= 1
 0 <= x201 <= 1
 0 <= x202 <= 1
 0 <= x203 <= 1
 0 <= x204 <= 1
 0 <= x205 <= 1
 0 <= x206 <= 1
 0 <= x207 <= 1
 0 <= x208 <= 1
 0 <= x209 <= 1
 0 <= x210 <= 1
 0 <= x211 <= 1
 0 <= x212 <= 1
 0 <= x213 <= 1
 0 <= x214 <= 1
 0 <= x215 <= 1
 0 <= x216 <= 1
 0 <= x217 <= 1
 0 <= x218 <= 1
 0 <= x219 <= 1
 0 <= x220 <= 1
 0 <= x221 <= 1
 0 <= x222 <= 1
 0 <= x223 <= 1
 0 <= x224 <= 1
 0 <= x225 <= 1
 0 <= x226 <= 1
 0 <= x227 <= 1
 0 <= x228 <= 1
 0 <= x229 <= 1
 0 <= x230 <= 1
 0 <= x231 <= 1
 0 <= x232 <= 1
 0 <= x233 <= 1
 0 <= x234 <= 1
 0 <= x235 <= 1
 0 <= x236 <= 1
 0 <= x237 <= 1
 0 <= x238 <= 1
 0 <= x239 <= 1
 0 <= x240 <= 1
 0 <= x241 <= 1
 0 <= x242 <= 1
 0 <= x243 <= 1
 0 <= x244 <= 1
 0 <= x245 <= 1
 0 <= x246 <= 1
 0 <= x247 <= 1
 0 <= x248 <= 1
 0 <= x249 <= 1
 0 <= x250 <= 1
 0 <= x251 <= 1
 0 <= x252 <= 1
 0 <= x253 <= 1
 0 <= x254 <= 1
 0 <= x255 <= 1
 0 <= x256 <= 1
 0 <= x257 <= 1
 0 <= x258 <= 1
 0 <= x259 <= 1
 0 <= x260 <= 1
 0 <= x261 <= 1
 0 <= x262 <= 1
 0 <= x263 <= 1
 0 <= x264 <= 1
 0 <= x265 <= 1
 0 <= x266 <= 1
 0 <= x267 <= 1
 0 <= x268 <= 1
 0 <= x269 <= 1
 0 <= x270 <= 1
 0 <= x271 <= 1
 0 <= x272 <= 1
 0 <= x273 <= 1
 0 <= x274 <= 1
 0 <= x275 <= 1
 0 <= x276 <= 1
 0 <= x277 <= 1
 0 <= x278 <= 1
 0 <= x279 <= 1
 0 <= x280 <= 1
 0 <= x281 <= 1
 0 <= x282 <= 1
 0 <= x283 <= 1
 0 <= x284 <= 1
 0 <= x285 <= 1
 0 <= x286 <= 1
 0 <= x287 <= 1
 0 <= x288 <= 1
 0 <= x289 <= 1
 0 <= x290 <= 1
 0 <= x291 <= 1
 0 <= x292 <= 1
 0 <= x293 <= 1
 0 <= x294 <= 1
 0 <= x295 <= 1
 0 <= x296 <= 1
 0 <= x297 <= 1
 0 <= x298 <= 1
 0 <= x299 <= 1
 0 <= x300 <= 1
 0 <= x301 <= 1
 0 <= x302 <= 1
 0 <= x303 <= 1
 0 <= x304 <= 1
 0 <= x305 <= 1
 0 <= x306 <= 1
 0 <= x307 <= 1
 0 <= x308 <= 1
 0 <= x309 <= 1
 0 <= x310 <= 1
 0 <= x311 <= 1
 0 <= x312 <= 1
 0 <= x313 <= 1
 0 <= x314 <= 1
 0 <= x315 <= 1
 0 <= x316 <= 1
 0 <= x317 <= 1
 0 <= x318 <= 1
 0 <= x319 <= 1
 0 <= x320 <= 1
 0 <= x321 <= 1
 0 <= x322 <= 1
 0 <= x323 <= 1
 0 <= x324 <= 1
 0 <= x325 <= 1
 0 <= x326 <= 1
 0 <= x327 <= 1
 0 <= x328 <= 1
 0 <= x329 <= 1
 0 <= x330 <= 1
 0 <= x331 <= 1
 0 <= x332 <= 1
 0 <= x333 <= 1
 0 <= x334 <= 1
 0 <= x335 <= 1
 0 <= x336 <= 1
 0 <= x337 <= 1
 0 <= x338 <= 1
 0 <= x339 <= 1
 0 <= x340 <= 1
 0 <= x341 <= 1
 0 <= x342 <= 1
 0 <= x343 <= 1
 0 <= x344 <= 1
 0 <= x345 <= 1
 0 <= x346 <= 1
 0 <= x347 <= 1
 0 <= x348 <= 1
 0 <= x349 <= 1
 0 <= x350 <= 1
 0 <= x351 <= 1
 0 <= x352 <= 1
 0 <= x353 <= 1
 0 <= x354 <= 1
 0 <= x355 <= 1
 0 <= x356 <= 1
 0 <= x357 <= 1
 0 <= x358 <= 1
 0 <= x359 <= 1
 0 <= x360 <= 1
 0 <= x361 <= 1
 0 <= x362 <= 1
 0 <= x363 <= 1
 0 <= x364 <= 1
 0 <= x365 <= 1
 0 <= x366 <= 1
 0 <= x367 <= 1
 0 <= x368 <= 1
 0 <= x369 <= 1
 0 <= x370 <= 1
 0 <= x371 <= 1
 0 <= x372 <= 1
 0 <= x373 <= 1
 0 <= x374 <= 1
 0 <= x375 <= 1
 0 <= x376 <= 1
 0 <= x377 <= 1
 0 <= x378 <= 1
 0 <= x379 <= 1
 0 <= x380 <= 1
 0 <= x381 <= 1
 0 <= x382 <= 1
 0 <= x383 <= 1
 0 <= x384 <= 1
 0 <= x385 <= 1
 0 <= x386 <= 1
 0 <= x387 <= 1
 0 <= x388 <= 1
 0 <= x389 <= 1
 0 <= x390 <= 1
 0 <= x391 <= 1
 0 <= x392 <= 1
 0 <= x393 <= 1
 0 <= x394 <= 1
 0 <= x395 <= 1
 0 <= x396 <= 1
 0 <= x397 <= 1
 0 <= x398 <= 1
 0 <= x399 <= 1
 0 <= x400 <= 1
 0 <= x401 <= 1
 0 <= x402 <= 1
 0 <= x403 <= 1
 0 <= x404 <= 1
 0 <= x405 <= 1
 0 <= x406 <= 1
 0 <= x407 <= 1
 0 <= x408 <= 1
 0 <= x409 <= 1
 0 <= x410 <= 1
 0 <= x411 <= 1
 0 <= x412 <= 1
 0 <= x413 <= 1
 0 <= x414 <= 1
 0 <= x415 <= 1
 0 <= x416 <= 1
 0 <= x417 <= 1
 0 <= x418 <= 1
 0 <= x419 <= 1
 0 <= x420 <= 1
 0 <= x421 <= 1
 0 <= x422 <= 1
 0 <= x423 <= 1
 0 <= x424 <= 1
 0 <= x425 <= 1
 0 <= x426 <= 1
 0 <= x427 <= 1
 0 <= x428 <= 1
 0 <= x429 <= 1
 0 <= x430 <= 1
 0 <= x431 <= 1
 0 <= x432 <= 1
 0 <= x433 <= 1
 0 <= x434 <= 1
 0 <= x435 <= 1
 0 <= x436 <= 1
 0 <= x437 <= 1
 0 <= x438 <= 1
 0 <= x439 <= 1
 0 <= x440 <= 1
 0 <= x441 <= 1
 0 <= x442 <= 1
 0 <= x443 <= 1
 0 <= x444 <= 1
 0 <= x445 <= 1
 0 <= x446 <= 1
 0 <= x447 <= 1
 0 <= x448 <= 1
 0 <= x449 <= 1
 0 <= x450 <= 1
 0 <= x451 <= 1
 0 <= x452 <= 1
 0 <= x453 <= 1
 0 <= x454 <= 1
 0 <= x455 <= 1
 0 <= x456 <= 1
 0 <= x457 <= 1
 0 <= x458 <= 1
 0 <= x459 <= 1
 0 <= x460 <= 1
 0 <= x461 <= 1
 0 <= x462 <= 1
 0 <= x463 <= 1
 0 <= x464 <= 1
 0 <= x465 <= 1
 0 <= x466 <= 1
 0 <= x467 <= 1
 0 <= x468 <= 1
 0 <= x469 <= 1
 0 <= x470 <= 1
 0 <= x471 <= 1
 0 <= x472 <= 1
 0 <= x473 <= 1
 0 <= x474 <= 1
 0 <= x475 <= 1
 0 <= x476 <= 1
 0 <= x477 <= 1
 0 <= x478 <= 1
 0 <= x479 <= 1
 0 <= x480 <= 1
 0 <= x481 <= 1
 0 <= x482 <= 1
 0 <= x483 <= 1
 0 <= x484 <= 1
 0 <= x485 <= 1
 0 <= x486 <= 1
 0 <= x487 <= 1
 0 <= x488 <= 1
 0 <= x489 <= 1
 0 <= x490 <= 1
 0 <= x491 <= 1
 0 <= x492 <= 1
 0 <= x493 <= 1
 0 <= x494 <= 1
 0 <= x495 <= 1
 0 <= x496 <= 1
 0 <= x497 <= 1
 0 <= x498 <= 1
 0 <= x499 <= 1
 0 <= x500 <= 1
 0 <= x501 <= 1
 0 <= x502 <= 1
 0 <= x503 <= 1
 0 <= x504 <= 1
 0 <= x505 <= 1
 0 <= x506 <= 1
 0 <= x507 <= 1
 0 <= x508 <= 1
 0 <= x509 <= 1
 0 <= x510 <= 1
 0 <= x511 <= 1
 0 <= x512 <= 1
 0 <= x513 <= 1
 0 <= x514 <= 1
 0 <= x515 <= 1
 0 <= x516 <= 1
 0 <= x517 <= 1
 0 <= x518 <= 1
 0 <= x519 <= 1
 0 <= x520 <= 1
 0 <= x521 <= 1
 0 <= x522 <= 1
 0 <= x523 <= 1
 0 <= x524 <= 1
 0 <= x525 <= 1
 0 <= x526 <= 1
 0 <= x527 <= 1
 0 <= x528 <= 1
 0 <= x529 <= 1
 0 <= x530 <= 1
 0 <= x531 <= 1
 0 <= x532 <= 1
 0 <= x533 <= 1
 0 <= x534 <= 1
 0 <= x535 <= 1
 0 <= x536 <= 1
 0 <= x537 <= 1
 0 <= x538 <= 1
 0 <= x539 <= 1
 0 <= x540 <= 1
 0 <= x541 <= 1
 0 <= x542 <= 1
 0 <= x543 <= 1
 0 <= x544 <= 1
 0 <= x545 <= 1
 0 <= x546 <= 1
 0 <= x547 <= 1
 0 <= x548 <= 1
 0 <= x549 <= 1
 0 <= x550 <= 1
Binaries
 x501  x502  x503  x504  x505  x506  x507  x508  x509  x510  x511  x512  x513 
 x514  x515  x516  x517  x518  x519  x520  x521  x522  x523  x524  x525  x526 
 x527  x528  x529  x530  x531  x532  x533  x534  x535  x536  x537  x538  x539 
 x540  x541  x542  x543  x544  x545  x546  x547  x548  x549  x550 
End
